#= General Settings =# 
  PREC = Normal
  EDIFF = 1e-3
  ISTART = 0
  ISPIN = 2
  MAGMOM = 1*7.0 12*5.0 
  ENCUT = 300
  KSPACING = 0.5

#= Parallelization =#
  LPLANE = .TRUE.
  NSIM = 4
  NCORE = 4
  LSCALU = .FALSE.
  NPAR = 3

#= Ionic Relaxation Settings =#
  NSW = 100
  IBRION = 2
  ISIF = 3
  POTIM = 0.02

#= Electronic Relxation Settings =#
  ALGO = FAST


#= Write flags =#
  LCHARG = .TRUE.
  LWAVE = .FALSE.
  LVTOT = .FALSE.
  LORBIT = 11

#= DOS =#
  ISMEAR = 0
  SIGMA = 0.01
